# Generated by ConicBenchmarkUtilities.jl
VER
2

OBJSENSE
MIN

VAR
192 1
F 192

INT
74
11
12
13
14
15
16
17
18
19
20
21
22
23
24
25
26
27
28
29
30
31
32
33
34
43
44
45
46
47
48
49
50
51
52
121
122
123
124
125
126
127
128
130
131
132
134
135
136
138
139
140
142
143
144
146
147
148
150
151
152
154
155
156
158
159
160
161
162
163
164
165
166
167
168

CON
592 580
L= 1
L= 1
L= 1
L= 1
L= 1
L= 1
L= 1
L= 1
L= 1
L= 1
L= 1
L= 1
L= 1
L= 1
L= 1
L= 1
L= 1
L= 1
L= 1
L= 1
L= 1
L= 1
L= 1
L= 1
L= 1
L= 1
L= 1
L= 1
L= 1
L= 1
L= 1
L= 1
L= 1
L= 1
L= 1
L= 1
L+ 1
L+ 1
L+ 1
L+ 1
L+ 1
L+ 1
L+ 1
L+ 1
L+ 1
L+ 1
L+ 1
L= 1
L= 1
L= 1
L= 1
L= 1
L= 1
L= 1
L= 1
L= 1
L= 1
L= 1
L= 1
L= 1
L= 1
L= 1
L= 1
L= 1
L= 1
L= 1
L= 1
L+ 1
L+ 1
L+ 1
L+ 1
L+ 1
L+ 1
L+ 1
L+ 1
L+ 1
L+ 1
L+ 1
L+ 1
L+ 1
L+ 1
L+ 1
L+ 1
L+ 1
L+ 1
L+ 1
L+ 1
L+ 1
L+ 1
L+ 1
L+ 1
L+ 1
L+ 1
L+ 1
L+ 1
L+ 1
L+ 1
L+ 1
L+ 1
L+ 1
L+ 1
L+ 1
L+ 1
L+ 1
L+ 1
L+ 1
L+ 1
L+ 1
L+ 1
L+ 1
L+ 1
L+ 1
L+ 1
L+ 1
L+ 1
L+ 1
L+ 1
L+ 1
L+ 1
L+ 1
L+ 1
L+ 1
L+ 1
L+ 1
L+ 1
L+ 1
L+ 1
L+ 1
L+ 1
L+ 1
L+ 1
L+ 1
L+ 1
L+ 1
L+ 1
L+ 1
L+ 1
L+ 1
L+ 1
L+ 1
L+ 1
L+ 1
L+ 1
L+ 1
L+ 1
L+ 1
L+ 1
L+ 1
L+ 1
L+ 1
L+ 1
L+ 1
L+ 1
L+ 1
L+ 1
L+ 1
L+ 1
L+ 1
L+ 1
L+ 1
L+ 1
L+ 1
L+ 1
L+ 1
L+ 1
L+ 1
L+ 1
L+ 1
L+ 1
L+ 1
L+ 1
L+ 1
L+ 1
L+ 1
L+ 1
L+ 1
L+ 1
L+ 1
L+ 1
L+ 1
L+ 1
L+ 1
L+ 1
L+ 1
L+ 1
L+ 1
L+ 1
L+ 1
L+ 1
L+ 1
L+ 1
L+ 1
L+ 1
L+ 1
L+ 1
L+ 1
L+ 1
L+ 1
L+ 1
L+ 1
L+ 1
L+ 1
L+ 1
L+ 1
L+ 1
L+ 1
L+ 1
L+ 1
L+ 1
L+ 1
L+ 1
L+ 1
L+ 1
L+ 1
L+ 1
L+ 1
L+ 1
L+ 1
L+ 1
L+ 1
L+ 1
L+ 1
L+ 1
L+ 1
L+ 1
L+ 1
L+ 1
L+ 1
L+ 1
L+ 1
L+ 1
L+ 1
L+ 1
L+ 1
L+ 1
L+ 1
L+ 1
L+ 1
L+ 1
L+ 1
L+ 1
L+ 1
L+ 1
L+ 1
L+ 1
L+ 1
L+ 1
L= 1
L= 1
L= 1
L= 1
L= 1
L= 1
L= 1
L= 1
L= 1
L= 1
L= 1
L= 1
L= 1
L= 1
L= 1
L= 1
L= 1
L= 1
EXP 3
L+ 1
L+ 1
L+ 1
EXP 3
L+ 1
L+ 1
L+ 1
L+ 1
L+ 1
L+ 1
L+ 1
EXP 3
L+ 1
L+ 1
L+ 1
L+ 1
L+ 1
L+ 1
L+ 1
L+ 1
L+ 1
L+ 1
EXP 3
L+ 1
L+ 1
L+ 1
EXP 3
L+ 1
L+ 1
L+ 1
EXP 3
L+ 1
L+ 1
L+ 1
L+ 1
L+ 1
L+ 1
L+ 1
L+ 1
L+ 1
L+ 1
L+ 1
L= 1
L+ 1
L+ 1
L+ 1
L+ 1
L+ 1
L+ 1
L+ 1
L+ 1
L+ 1
L+ 1
L+ 1
L+ 1
L+ 1
L+ 1
L+ 1
L+ 1
L+ 1
L+ 1
L+ 1
L+ 1
L+ 1
L+ 1
L+ 1
L+ 1
L+ 1
L+ 1
L+ 1
L+ 1
L+ 1
L+ 1
L+ 1
L+ 1
L+ 1
L+ 1
L+ 1
L+ 1
L+ 1
L+ 1
L+ 1
L+ 1
L+ 1
L+ 1
L+ 1
L+ 1
L+ 1
L+ 1
L+ 1
L+ 1
L+ 1
L+ 1
L+ 1
L+ 1
L+ 1
L+ 1
L+ 1
L+ 1
L+ 1
L+ 1
L+ 1
L+ 1
L+ 1
L+ 1
L+ 1
L+ 1
L+ 1
L+ 1
L+ 1
L+ 1
L+ 1
L+ 1
L+ 1
L+ 1
L+ 1
L+ 1
L+ 1
L+ 1
L+ 1
L+ 1
L+ 1
L+ 1
L+ 1
L+ 1
L+ 1
L+ 1
L+ 1
L+ 1
L+ 1
L+ 1
L+ 1
L+ 1
L+ 1
L+ 1
L+ 1
L+ 1
L+ 1
L+ 1
L+ 1
L+ 1
L+ 1
L+ 1
L+ 1
L+ 1
L+ 1
L+ 1
L+ 1
L+ 1
L+ 1
L+ 1
L+ 1
L+ 1
L+ 1
L+ 1
L+ 1
L+ 1
L+ 1
L+ 1
L+ 1
L+ 1
L+ 1
L+ 1
L+ 1
L+ 1
L+ 1
L+ 1
L+ 1
L+ 1
L+ 1
L+ 1
L+ 1
L+ 1
L+ 1
L+ 1
L+ 1
L+ 1
L+ 1
L+ 1
L+ 1
L+ 1
L+ 1
L+ 1
L+ 1
L+ 1
L+ 1
L+ 1
L+ 1
L+ 1
L+ 1
L+ 1
L+ 1
L+ 1
L+ 1
L+ 1
L+ 1
L+ 1
L+ 1
L+ 1
L+ 1
L+ 1
L+ 1
L+ 1
L+ 1
L+ 1
L+ 1
L+ 1
L+ 1
L+ 1
L+ 1
L+ 1
L+ 1
L+ 1
L+ 1
L+ 1
L+ 1
L+ 1
L+ 1
L+ 1
L+ 1
L+ 1
L+ 1
L+ 1
L+ 1
L+ 1
L+ 1
L+ 1
L+ 1
L+ 1
L+ 1
L+ 1
L+ 1
L+ 1
L+ 1
L+ 1
L+ 1
L+ 1
L+ 1
L+ 1
L+ 1
L+ 1
L+ 1
L+ 1
L+ 1
L+ 1
L+ 1
L+ 1
L+ 1
L+ 1
L+ 1
L+ 1
L+ 1
L+ 1
L+ 1
L+ 1
L+ 1
L+ 1
L+ 1
L+ 1
L+ 1
L+ 1
L+ 1
L+ 1
L+ 1
L+ 1
L+ 1
L+ 1
L+ 1
L+ 1
L+ 1
L+ 1
L+ 1
L+ 1
L+ 1
L+ 1
L+ 1
L+ 1
L+ 1
L+ 1
L+ 1
L+ 1
L+ 1
L+ 1
L+ 1
L+ 1
L+ 1
L+ 1
L+ 1
L+ 1
L+ 1
L+ 1
L+ 1
L+ 1
L+ 1
L+ 1
L+ 1
L+ 1
L+ 1
L+ 1
L+ 1
L+ 1
L+ 1
L+ 1
L+ 1
L+ 1
L+ 1
L+ 1
L+ 1
L+ 1
L+ 1
L+ 1
L+ 1
L+ 1
L+ 1

OBJACOORD
1
53 -1.0

ACOORD
1090
0 0 -4.0
1 0 1.0
42 0 -1.0
47 0 1.0
246 0 -4.0
331 0 1.0
0 1 -8.0
6 1 1.0
43 1 -1.0
49 1 1.0
246 1 -8.0
336 1 1.0
0 2 -5.0
10 2 1.0
44 2 -1.0
51 2 1.0
246 2 -5.0
340 2 1.0
0 3 -8.0
22 3 1.0
45 3 -1.0
55 3 1.0
246 3 -8.0
352 3 1.0
0 4 23.0
26 4 1.0
36 4 1.0
56 4 -1.0
356 4 1.0
0 5 19.0
28 5 1.0
37 5 1.0
57 5 -1.0
358 5 1.0
0 6 -10.0
29 6 1.0
46 6 -1.0
58 6 1.0
246 6 -10.0
359 6 1.0
0 7 2.0
32 7 1.0
38 7 1.0
255 7 -1.0
362 7 1.0
0 8 3.0
33 8 1.0
39 8 1.0
256 8 -1.0
363 8 1.0
0 9 25.0
34 9 1.0
40 9 1.0
257 9 -1.0
364 9 1.0
0 10 24.0
35 10 1.0
41 10 1.0
258 10 -1.0
365 10 1.0
0 11 -6.0
71 11 -148.75
75 11 -148.75
151 11 -25.0
247 11 1.0
419 11 1.0
420 11 -1.0
0 12 -40.0
72 12 -148.75
76 12 -148.75
152 12 15.0
247 12 1.0
421 12 1.0
422 12 -1.0
0 13 -46.0
73 13 -148.75
77 13 -148.75
153 13 15.0
247 13 1.0
423 13 1.0
424 13 -1.0
0 14 -7.0
79 14 -254.045833333333
83 14 -166.25
155 14 -56.0
248 14 1.0
427 14 1.0
428 14 -1.0
0 15 -30.0
80 15 -254.045833333333
84 15 -166.25
156 15 -36.0
248 15 1.0
429 15 1.0
430 15 -1.0
0 16 -37.0
81 16 -254.045833333333
85 16 -166.25
157 16 -36.0
248 16 1.0
431 16 1.0
432 16 -1.0
0 17 -7.0
87 17 -20.4166666666667
91 17 -20.4166666666667
95 17 -20.4166666666667
99 17 -20.4166666666667
159 17 -10.0
249 17 1.0
435 17 1.0
436 17 -1.0
0 18 -15.0
88 18 -20.4166666666667
92 18 -20.4166666666667
96 18 -20.4166666666667
100 18 -20.4166666666667
249 18 1.0
437 18 1.0
438 18 -1.0
0 19 -22.0
89 19 -20.4166666666667
93 19 -20.4166666666667
97 19 -20.4166666666667
101 19 -20.4166666666667
249 19 1.0
439 19 1.0
440 19 -1.0
0 20 -11.0
103 20 -18.75
107 20 -18.75
163 20 -10.0
250 20 1.0
443 20 1.0
444 20 -1.0
0 21 -13.0
104 21 -18.75
108 21 -18.75
164 21 -5.0
250 21 1.0
445 21 1.0
446 21 -1.0
0 22 -24.0
105 22 -18.75
109 22 -18.75
165 22 -5.0
250 22 1.0
447 22 1.0
448 22 -1.0
0 23 -10.0
111 23 -17.8125
115 23 -17.8125
119 23 -17.8125
123 23 -17.8125
167 23 -15.0
251 23 1.0
451 23 1.0
452 23 -1.0
0 24 -13.0
112 24 -17.8125
116 24 -17.8125
120 24 -17.8125
124 24 -17.8125
168 24 -5.0
251 24 1.0
453 24 1.0
454 24 -1.0
0 25 -23.0
113 25 -17.8125
117 25 -17.8125
121 25 -17.8125
125 25 -17.8125
169 25 -5.0
251 25 1.0
455 25 1.0
456 25 -1.0
0 26 -9.0
127 26 -66.9375
131 26 -15.9375
171 26 -29.0
252 26 1.0
459 26 1.0
460 26 -1.0
0 27 -30.0
128 27 -66.9375
132 27 -15.9375
172 27 6.0
252 27 1.0
461 27 1.0
462 27 -1.0
0 28 -39.0
129 28 -66.9375
133 28 -15.9375
173 28 6.0
252 28 1.0
463 28 1.0
464 28 -1.0
0 29 -8.0
135 29 -94.4571428571429
139 29 -57.0
175 29 -29.0
253 29 1.0
467 29 1.0
468 29 -1.0
0 30 -20.0
136 30 -94.4571428571429
140 30 -57.0
176 30 -4.0
253 30 1.0
469 30 1.0
470 30 -1.0
0 31 -28.0
137 31 -94.4571428571429
141 31 -57.0
177 31 -4.0
253 31 1.0
471 31 1.0
472 31 -1.0
0 32 -8.0
143 32 -39.4285714285714
147 32 -39.4285714285714
179 32 -15.0
254 32 1.0
475 32 1.0
476 32 -1.0
0 33 -15.0
144 33 -39.4285714285714
148 33 -39.4285714285714
180 33 5.0
254 33 1.0
477 33 1.0
478 33 -1.0
0 34 -23.0
145 34 -39.4285714285714
149 34 -39.4285714285714
181 34 5.0
254 34 1.0
479 34 1.0
480 34 -1.0
0 35 5.0
261 35 -1.0
552 35 1.0
0 36 -2.0
256 36 -1.0
289 36 0.5
290 36 -0.5
292 36 -1.0
557 36 1.0
558 36 -1.0
0 37 200.0
264 37 -1.0
566 37 1.0
0 38 250.0
297 38 -1.0
299 38 -1.0
567 38 1.0
0 39 200.0
303 39 -1.0
305 39 -1.0
568 39 1.0
0 40 200.0
309 40 -1.0
311 40 -1.0
569 40 1.0
0 41 500.0
312 41 -1.0
313 41 1.0
315 41 -1.0
570 41 1.0
0 42 350.0
316 42 -1.0
317 42 1.0
319 42 -1.0
571 42 1.0
0 43 -5.0
268 43 -1.0
269 43 10.0
270 43 2.39789527279837
320 43 1.0
323 43 1.0
324 43 1.0
325 43 1.0
572 43 1.0
573 43 -1.0
0 44 -8.0
274 44 -1.0
275 44 10.0
276 44 2.87747432735804
320 44 1.0
323 44 1.0
324 44 1.0
325 44 1.0
574 44 1.0
575 44 -1.0
0 45 -6.0
277 45 -1.0
278 45 -1.0
279 45 2.87747432735804
280 45 2.15810574551853
321 45 -1.0
323 45 -1.0
326 45 1.0
327 45 1.0
576 45 1.0
577 45 -1.0
0 46 -10.0
284 46 -1.0
285 46 2.87747432735804
286 46 2.03277599268042
322 46 -1.0
324 46 -1.0
328 46 1.0
578 46 1.0
579 46 -1.0
0 47 -6.0
287 47 -1.0
288 47 -1.0
289 47 -1.0
290 47 -1.0
291 47 2.87747432735804
292 47 7.0
293 47 3.5
325 47 -1.0
329 47 1.0
330 47 1.0
580 47 1.0
581 47 -1.0
0 48 -7.0
297 48 -1.0
298 48 2.15810574551853
299 48 1.43746550029693
321 48 1.0
326 48 -1.0
582 48 1.0
583 48 -1.0
0 49 -4.0
303 49 -1.0
304 49 2.15810574551853
305 49 1.03497516021379
321 49 1.0
327 49 -1.0
584 49 1.0
585 49 -1.0
0 50 -5.0
309 50 -1.0
310 50 2.03277599268042
311 50 1.10947836929589
322 50 1.0
328 50 -1.0
586 50 1.0
587 50 -1.0
0 51 -2.0
312 51 -1.0
313 51 -1.0
314 51 3.5
315 51 3.15
329 51 -1.0
588 51 1.0
589 51 -1.0
0 52 -4.0
316 52 -1.0
317 52 -1.0
318 52 3.5
319 52 2.1
330 52 -1.0
590 52 1.0
591 52 -1.0
0 53 -1.0
1 54 -0.2
366 54 1.0
2 55 1.0
47 55 -1.0
59 55 1.0
150 55 -1.0
151 55 -1.0
152 55 -1.0
153 55 -1.0
332 55 1.0
2 56 -0.2
70 56 0.8
71 56 0.85
72 56 0.8
73 56 0.85
74 56 -0.8
75 56 -0.85
76 56 -0.8
77 56 -0.85
367 56 1.0
3 57 1.0
47 57 -1.0
60 57 1.0
154 57 -1.0
155 57 -1.0
156 57 -1.0
157 57 -1.0
333 57 1.0
3 58 -0.2
67 58 -1.0
78 58 0.9
79 58 0.95
80 58 0.9
81 58 0.95
82 58 -0.9
83 58 -0.95
84 58 -0.9
85 58 -0.95
368 58 1.0
4 59 1.0
48 59 1.0
59 59 -1.0
334 59 1.0
4 60 -0.2
70 60 -1.0
71 60 -1.0
72 60 -1.0
73 60 -1.0
74 60 1.0
75 60 1.0
76 60 1.0
77 60 1.0
369 60 1.0
5 61 1.0
48 61 -1.0
255 61 1.0
335 61 1.0
5 62 -0.2
370 62 1.0
6 63 -0.5
371 63 1.0
7 64 1.0
49 64 -1.0
60 64 1.0
154 64 -1.0
155 64 -1.0
156 64 -1.0
157 64 -1.0
337 64 1.0
7 65 -0.5
67 65 1.0
372 65 1.0
8 66 1.0
50 66 1.0
60 66 -1.0
338 66 1.0
8 67 -0.7
78 67 -1.0
79 67 -1.0
80 67 -1.0
81 67 -1.0
82 67 1.0
83 67 1.0
84 67 1.0
85 67 1.0
373 67 1.0
9 68 1.0
50 68 -1.0
256 68 1.0
339 68 1.0
9 69 -0.7
374 69 1.0
10 70 -1.2
375 70 1.0
11 71 1.0
51 71 -1.0
61 71 1.0
158 71 -1.0
159 71 -1.0
160 71 -1.0
161 71 -1.0
341 71 1.0
11 72 -1.2
86 72 0.85
87 72 0.98
88 72 0.85
89 72 0.98
90 72 0.85
91 72 0.98
92 72 0.85
93 72 0.98
94 72 -0.85
95 72 -0.98
96 72 -0.85
97 72 -0.98
98 72 -0.85
99 72 -0.98
100 72 -0.85
101 72 -0.98
376 72 1.0
12 73 1.0
49 73 1.0
61 73 -1.0
342 73 1.0
12 74 -0.5
86 74 -1.0
87 74 -1.0
88 74 -1.0
89 74 -1.0
94 74 1.0
95 74 1.0
96 74 1.0
97 74 1.0
377 74 1.0
13 75 1.0
50 75 1.0
61 75 -1.0
343 75 1.0
13 76 -0.7
90 76 -1.0
91 76 -1.0
92 76 -1.0
93 76 -1.0
98 76 1.0
99 76 1.0
100 76 1.0
101 76 1.0
378 76 1.0
14 77 1.0
51 77 -1.0
62 77 1.0
162 77 -1.0
163 77 -1.0
164 77 -1.0
165 77 -1.0
344 77 1.0
14 78 -1.2
102 78 0.85
103 78 0.9
104 78 0.85
105 78 0.9
106 78 -0.85
107 78 -0.9
108 78 -0.85
109 78 -0.9
379 78 1.0
15 79 1.0
52 79 1.0
62 79 -1.0
345 79 1.0
15 80 -1.2
102 80 -1.0
103 80 -1.0
104 80 -1.0
105 80 -1.0
106 80 1.0
107 80 1.0
108 80 1.0
109 80 1.0
380 80 1.0
16 81 1.0
52 81 -1.0
64 81 1.0
170 81 -1.0
171 81 -1.0
172 81 -1.0
173 81 -1.0
346 81 1.0
16 82 -1.2
68 82 -1.0
126 82 0.8
127 82 0.85
128 82 0.8
129 82 0.85
130 82 -0.8
131 82 -0.85
132 82 -0.8
133 82 -0.85
381 82 1.0
17 83 1.0
52 83 -1.0
63 83 1.0
166 83 -1.0
167 83 -1.0
168 83 -1.0
169 83 -1.0
347 83 1.0
17 84 -1.2
110 84 0.75
111 84 0.95
112 84 0.9
113 84 0.95
114 84 0.75
115 84 0.95
116 84 0.9
117 84 0.95
118 84 -0.75
119 84 -0.95
120 84 -0.9
121 84 -0.95
122 84 -0.75
123 84 -0.95
124 84 -0.9
125 84 -0.95
382 84 1.0
18 85 1.0
53 85 1.0
63 85 -1.0
348 85 1.0
18 86 -0.3
110 86 -1.0
111 86 -1.0
112 86 -1.0
113 86 -1.0
118 86 1.0
119 86 1.0
120 86 1.0
121 86 1.0
383 86 1.0
19 87 1.0
54 87 1.0
63 87 -1.0
349 87 1.0
19 88 -0.9
114 88 -1.0
115 88 -1.0
116 88 -1.0
117 88 -1.0
122 88 1.0
123 88 1.0
124 88 1.0
125 88 1.0
384 88 1.0
20 89 1.0
53 89 -1.0
257 89 1.0
350 89 1.0
20 90 -0.3
385 90 1.0
21 91 1.0
54 91 -1.0
258 91 1.0
351 91 1.0
21 92 -0.9
386 92 1.0
22 93 -0.4
387 93 1.0
23 94 1.0
55 94 -1.0
64 94 1.0
170 94 -1.0
171 94 -1.0
172 94 -1.0
173 94 -1.0
353 94 1.0
23 95 -0.4
68 95 1.0
388 95 1.0
24 96 1.0
55 96 -1.0
65 96 1.0
174 96 -1.0
175 96 -1.0
176 96 -1.0
177 96 -1.0
354 96 1.0
24 97 -0.4
69 97 -1.0
134 97 0.85
135 97 0.95
136 97 0.85
137 97 0.95
138 97 -0.85
139 97 -0.95
140 97 -0.85
141 97 -0.95
389 97 1.0
25 98 1.0
56 98 1.0
64 98 -1.0
355 98 1.0
25 99 -1.6
126 99 -1.0
127 99 -1.0
128 99 -1.0
129 99 -1.0
130 99 1.0
131 99 1.0
132 99 1.0
133 99 1.0
390 99 1.0
26 100 -1.6
391 100 1.0
27 101 1.0
57 101 1.0
65 101 -1.0
357 101 1.0
27 102 -1.1
134 102 -1.0
135 102 -1.0
136 102 -1.0
137 102 -1.0
138 102 1.0
139 102 1.0
140 102 1.0
141 102 1.0
392 102 1.0
28 103 -1.1
393 103 1.0
29 104 -0.7
394 104 1.0
30 105 1.0
58 105 -1.0
66 105 1.0
178 105 -1.0
179 105 -1.0
180 105 -1.0
181 105 -1.0
360 105 1.0
30 106 -0.7
142 106 0.8
143 106 0.92
144 106 0.8
145 106 0.92
146 106 -0.8
147 106 -0.92
148 106 -0.8
149 106 -0.92
395 106 1.0
31 107 1.0
65 107 1.0
66 107 -1.0
174 107 -1.0
175 107 -1.0
176 107 -1.0
177 107 -1.0
361 107 1.0
31 108 -0.7
69 108 1.0
142 108 -1.0
143 108 -1.0
144 108 -1.0
145 108 -1.0
146 108 1.0
147 108 1.0
148 108 1.0
149 108 1.0
396 108 1.0
32 109 -0.2
397 109 1.0
33 110 -0.7
398 110 1.0
34 111 -0.3
399 111 1.0
35 112 -0.9
400 112 1.0
59 113 -1.0
401 113 1.0
60 114 -1.0
402 114 1.0
61 115 -1.0
403 115 1.0
62 116 -1.0
404 116 1.0
63 117 -1.0
405 117 1.0
64 118 -1.0
406 118 1.0
65 119 -1.0
407 119 1.0
66 120 -1.0
408 120 1.0
70 121 -148.75
74 121 -148.75
150 121 -25.0
247 121 1.0
417 121 1.0
418 121 -1.0
78 122 -254.045833333333
82 122 -166.25
154 122 -56.0
248 122 1.0
425 122 1.0
426 122 -1.0
86 123 -20.4166666666667
90 123 -20.4166666666667
94 123 -20.4166666666667
98 123 -20.4166666666667
158 123 -10.0
249 123 1.0
433 123 1.0
434 123 -1.0
102 124 -18.75
106 124 -18.75
162 124 -10.0
250 124 1.0
441 124 1.0
442 124 -1.0
110 125 -17.8125
114 125 -17.8125
118 125 -17.8125
122 125 -17.8125
166 125 -15.0
251 125 1.0
449 125 1.0
450 125 -1.0
126 126 -66.9375
130 126 -15.9375
170 126 -29.0
252 126 1.0
457 126 1.0
458 126 -1.0
134 127 -94.4571428571429
138 127 -57.0
174 127 -29.0
253 127 1.0
465 127 1.0
466 127 -1.0
142 128 -39.4285714285714
146 128 -39.4285714285714
178 128 -15.0
254 128 1.0
473 128 1.0
474 128 -1.0
182 129 -1.0
183 129 -1.0
184 129 -1.0
185 129 -1.0
214 129 1.0
215 129 1.0
216 129 1.0
217 129 1.0
246 129 -1.0
409 129 1.0
182 130 -46.0
481 130 1.0
482 130 -1.0
183 131 -40.0
215 131 -6.0
483 131 1.0
484 131 -1.0
184 132 -6.0
216 132 -40.0
485 132 1.0
486 132 -1.0
186 133 -1.0
187 133 -1.0
188 133 -1.0
189 133 -1.0
218 133 1.0
219 133 1.0
220 133 1.0
221 133 1.0
246 133 -1.0
410 133 1.0
186 134 -37.0
489 134 1.0
490 134 -1.0
187 135 -30.0
219 135 -7.0
491 135 1.0
492 135 -1.0
188 136 -7.0
220 136 -30.0
493 136 1.0
494 136 -1.0
190 137 -1.0
191 137 -1.0
192 137 -1.0
193 137 -1.0
222 137 1.0
223 137 1.0
224 137 1.0
225 137 1.0
246 137 -1.0
411 137 1.0
190 138 -22.0
497 138 1.0
498 138 -1.0
191 139 -15.0
223 139 -7.0
499 139 1.0
500 139 -1.0
192 140 -7.0
224 140 -15.0
501 140 1.0
502 140 -1.0
194 141 -1.0
195 141 -1.0
196 141 -1.0
197 141 -1.0
226 141 1.0
227 141 1.0
228 141 1.0
229 141 1.0
246 141 -1.0
412 141 1.0
194 142 -24.0
505 142 1.0
506 142 -1.0
195 143 -13.0
227 143 -11.0
507 143 1.0
508 143 -1.0
196 144 -11.0
228 144 -13.0
509 144 1.0
510 144 -1.0
198 145 -1.0
199 145 -1.0
200 145 -1.0
201 145 -1.0
230 145 1.0
231 145 1.0
232 145 1.0
233 145 1.0
246 145 -1.0
413 145 1.0
198 146 -23.0
513 146 1.0
514 146 -1.0
199 147 -13.0
231 147 -10.0
515 147 1.0
516 147 -1.0
200 148 -10.0
232 148 -13.0
517 148 1.0
518 148 -1.0
202 149 -1.0
203 149 -1.0
204 149 -1.0
205 149 -1.0
234 149 1.0
235 149 1.0
236 149 1.0
237 149 1.0
246 149 -1.0
414 149 1.0
202 150 -39.0
521 150 1.0
522 150 -1.0
203 151 -30.0
235 151 -9.0
523 151 1.0
524 151 -1.0
204 152 -9.0
236 152 -30.0
525 152 1.0
526 152 -1.0
206 153 -1.0
207 153 -1.0
208 153 -1.0
209 153 -1.0
238 153 1.0
239 153 1.0
240 153 1.0
241 153 1.0
246 153 -1.0
415 153 1.0
206 154 -28.0
529 154 1.0
530 154 -1.0
207 155 -20.0
239 155 -8.0
531 155 1.0
532 155 -1.0
208 156 -8.0
240 156 -20.0
533 156 1.0
534 156 -1.0
210 157 -1.0
211 157 -1.0
212 157 -1.0
213 157 -1.0
242 157 1.0
243 157 1.0
244 157 1.0
245 157 1.0
246 157 -1.0
416 157 1.0
210 158 -23.0
537 158 1.0
538 158 -1.0
211 159 -15.0
243 159 -8.0
539 159 1.0
540 159 -1.0
212 160 -8.0
244 160 -15.0
541 160 1.0
542 160 -1.0
217 161 -46.0
487 161 1.0
488 161 -1.0
221 162 -37.0
495 162 1.0
496 162 -1.0
225 163 -22.0
503 163 1.0
504 163 -1.0
229 164 -24.0
511 164 1.0
512 164 -1.0
233 165 -23.0
519 165 1.0
520 165 -1.0
237 166 -39.0
527 166 1.0
528 166 -1.0
241 167 -28.0
535 167 1.0
536 167 -1.0
245 168 -23.0
543 168 1.0
544 168 -1.0
255 169 -1.0
259 169 1.0
545 169 1.0
546 169 -1.0
259 170 -1.0
265 170 1.0
269 170 -1.0
547 170 1.0
259 171 -1.0
271 171 1.0
275 171 -1.0
548 171 1.0
260 172 -1.0
268 172 -1.0
270 172 -1.0
549 172 1.0
260 173 -1.0
274 173 -1.0
276 173 -1.0
550 173 1.0
260 174 1.0
261 174 1.0
551 174 1.0
261 175 -1.0
262 175 1.0
553 175 1.0
262 176 -1.0
277 176 0.75
278 176 -0.75
279 176 -1.0
554 176 1.0
262 177 -1.0
281 177 1.0
285 177 -1.0
555 177 1.0
262 178 -1.0
287 178 1.0
288 178 -1.0
291 178 -1.0
556 178 1.0
263 179 1.0
277 179 -1.0
278 179 1.0
280 179 -1.0
559 179 1.0
263 180 -1.0
294 180 1.0
298 180 -1.0
562 180 1.0
263 181 -1.0
300 181 1.0
304 181 -1.0
563 181 1.0
264 182 1.0
287 182 -1.0
288 182 1.0
289 182 -1.0
290 182 1.0
293 182 -1.0
561 182 1.0
264 183 -1.0
312 183 0.9
313 183 -0.9
314 183 -1.0
564 183 1.0
264 184 -1.0
316 184 0.6
317 184 -0.6
318 184 -1.0
565 184 1.0
267 185 1.0
268 185 1.0
273 186 1.0
274 186 1.2
283 187 1.0
284 187 1.5
284 188 -1.0
286 188 -1.0
306 188 1.0
310 188 -1.0
560 188 1.0
296 189 1.0
297 189 1.25
302 190 1.0
303 190 0.9
308 191 1.0
309 191 1.0

BCOORD
269
36 -0.4
37 -0.3
38 -0.2
39 -0.5
40 -0.2
41 -0.3
42 35.0
43 36.0
44 25.0
45 24.0
46 30.0
70 148.75
71 148.75
72 148.75
73 148.75
74 148.75
75 148.75
76 148.75
77 148.75
78 254.045833333333
79 254.045833333333
80 254.045833333333
81 254.045833333333
82 166.25
83 166.25
84 166.25
85 166.25
86 20.4166666666667
87 20.4166666666667
88 20.4166666666667
89 20.4166666666667
90 20.4166666666667
91 20.4166666666667
92 20.4166666666667
93 20.4166666666667
94 20.4166666666667
95 20.4166666666667
96 20.4166666666667
97 20.4166666666667
98 20.4166666666667
99 20.4166666666667
100 20.4166666666667
101 20.4166666666667
102 18.75
103 18.75
104 18.75
105 18.75
106 18.75
107 18.75
108 18.75
109 18.75
110 17.8125
111 17.8125
112 17.8125
113 17.8125
114 17.8125
115 17.8125
116 17.8125
117 17.8125
118 17.8125
119 17.8125
120 17.8125
121 17.8125
122 17.8125
123 17.8125
124 17.8125
125 17.8125
126 66.9375
127 66.9375
128 66.9375
129 66.9375
130 15.9375
131 15.9375
132 15.9375
133 15.9375
134 94.4571428571429
135 94.4571428571429
136 94.4571428571429
137 94.4571428571429
138 57.0
139 57.0
140 57.0
141 57.0
142 39.4285714285714
143 39.4285714285714
144 39.4285714285714
145 39.4285714285714
146 39.4285714285714
147 39.4285714285714
148 39.4285714285714
149 39.4285714285714
150 35.0
151 35.0
152 35.0
153 35.0
154 96.0
155 96.0
156 96.0
157 96.0
158 25.0
159 25.0
160 25.0
161 25.0
162 25.0
163 25.0
164 25.0
165 25.0
166 25.0
167 25.0
168 25.0
169 25.0
170 49.0
171 49.0
172 49.0
173 49.0
174 54.0
175 54.0
176 54.0
177 54.0
178 30.0
179 30.0
180 30.0
181 30.0
182 46.0
183 46.0
184 46.0
185 46.0
186 37.0
187 37.0
188 37.0
189 37.0
190 22.0
191 22.0
192 22.0
193 22.0
194 24.0
195 24.0
196 24.0
197 24.0
198 23.0
199 23.0
200 23.0
201 23.0
202 39.0
203 39.0
204 39.0
205 39.0
206 28.0
207 28.0
208 28.0
209 28.0
210 23.0
211 23.0
212 23.0
213 23.0
246 4000.0
247 -1.0
248 -1.0
249 -1.0
250 -1.0
251 -1.0
252 -1.0
253 -1.0
254 -1.0
265 1.0
266 1.0
268 1.0
271 1.0
272 1.0
274 1.0
277 1.0
278 1.0
281 1.0
282 1.0
284 1.0
287 1.0
288 1.0
289 1.0
290 1.0
294 1.0
295 1.0
297 1.0
300 1.0
301 1.0
303 1.0
306 1.0
307 1.0
309 1.0
312 1.0
313 1.0
316 1.0
317 1.0
320 -1.0
418 1.0
420 1.0
422 1.0
424 1.0
426 1.0
428 1.0
430 1.0
432 1.0
434 1.0
436 1.0
438 1.0
440 1.0
442 1.0
444 1.0
446 1.0
448 1.0
450 1.0
452 1.0
454 1.0
456 1.0
458 1.0
460 1.0
462 1.0
464 1.0
466 1.0
468 1.0
470 1.0
472 1.0
474 1.0
476 1.0
478 1.0
480 1.0
482 1.0
484 1.0
486 1.0
488 1.0
490 1.0
492 1.0
494 1.0
496 1.0
498 1.0
500 1.0
502 1.0
504 1.0
506 1.0
508 1.0
510 1.0
512 1.0
514 1.0
516 1.0
518 1.0
520 1.0
522 1.0
524 1.0
526 1.0
528 1.0
530 1.0
532 1.0
534 1.0
536 1.0
538 1.0
540 1.0
542 1.0
544 1.0
546 10.0
558 7.0
573 1.0
575 1.0
577 1.0
579 1.0
581 1.0
583 1.0
585 1.0
587 1.0
589 1.0
591 1.0
